VALUE 2800498
1 9
8 111
9 239
13 230
18 232
21 40
28 228
29 48
29 30
30 31
31 32
33 52
37 224
37 38
38 39
39 40
41 42
42 187
46 47
47 256
47 48
52 181
56 224
58 195
59 174
63 64
64 65
65 66
66 191
67 68
68 150
72 136
78 174
63 82
67 86
90 126
91 95
95 131
99 115
105 106
106 119
99 110
111 112
112 113
105 113
111 115
119 120
120 127
126 128
127 128
128 134
99 131
134 136
136 138
68 138
64 150
82 156
156 167
167 174
48 181
46 187
191 194
41 194
194 195
58 216
216 218
218 222
222 224
32 228
32 230
230 232
28 239
1 245
8 246
9 247
13 248
18 249
21 250
28 251
29 252
33 253
40 254
41 255
52 257
56 258
58 259
59 260
64 261
68 262
72 263
78 264
82 265
86 266
90 267
91 268
95 269
99 270
106 271
110 272

